# 3d Lennard
label tloop

variable T index 0.5 2.5
variable rho index 1.5 0.01

units lj
dimension 3
boundary p p p
atom_style atomic

lattice fcc ${rho}
region simbox block 0 9 0 9 0 9
create_box 1 simbox
create_atoms 1 box

mass 1 1.0

velocity all create ${T} 87287 dist uniform

pair_style lj/cut 3.0
pair_coeff 1 1 1.0 1.0 3.0

compute myMSD all msd
compute myRDF all rdf 100

# fix 2 all ave/time 100 1 20000 c_myRDF[*] file time_avg_rdf_T${T}.txt mode vector
fix 1 all nve

dump 1 all custom 100 dump.radial_dist_T${T} id type x y z vx vy vz
thermo 100

thermo_style custom step temp press c_myMSD[4]

run 20000

clear
next T
next rho
jump SELF tloop
