#3d Lennard

label tloop

variable dt index 0.010 0.001

timestep ${dt}

units lj
dimension 3
boundary p p p
atom_style atomic

lattice fcc 0.01
region simbox block 0 10 0 10 0 10
create_box 1 simbox
create_atoms 1 box

mass 1 1.0
velocity all create 2.5 87287 dist uniform

pair_style lj/cut 3.0
pair_coeff 1 1 1.0 1.0 3.0

fix f all nve

compute Ep all pe/atom
compute Ek all ke/atom

dump 1 all custom 100 dump.energy_b_${dt} id type c_Ep c_Ek
# timestep 0.0001
thermo 100
run 20000

clear
next dt
jump SELF tloop
