# 3d Lennard
variable T equal 2.5
variable rho equal 0.01

units lj
dimension 3
boundary p p p
atom_style atomic

lattice fcc ${rho}
region simbox block 0 10 0 10 0 10
create_box 1 simbox
create_atoms 1 box

mass 1 1.0

velocity all create ${T} 87287 dist uniform

pair_style lj/cut 3.0
pair_coeff 1 1 1.0 1.0 3.0

fix 1 all nvt temp ${T} ${T} 1.0
# fix 2 all temp/berendsen ${T} ${T} 1.0

dump 1 all custom 100 dump.task_i_berendsen id type x y z vx vy vz
thermo 100

thermo_style custom step temp press etotal density
log log.noose-hoover

run 20000
