# 3d Lennard
label tloop

variable rho index 0.01 1.5

units lj
dimension 3
boundary p p p
atom_style atomic

lattice fcc ${rho}
region simbox block 0 10 0 10 0 10
create_box 1 simbox
create_atoms 1 box

mass 1 1.0

velocity all create 2.0 87287 dist uniform

pair_style lj/cut 3.0
pair_coeff 1 1 1.0 1.0 3.0

compute myMSD all msd
compute myRDF all rdf 100

fix 1 all nve

# Equilibriate
thermo_style custom cpu
run 5000
reset_timestep 0

fix 2 all ave/time 1 10000 10000 c_myRDF[*] file time_avg_rdf_rho${rho}.txt mode vector

dump 1 all custom 100 dump.radial_dist_rho${rho} id type x y z vx vy vz
thermo 100

thermo_style custom step temp press c_myMSD[4] time

run 10000

clear
next rho
jump SELF tloop
