#3d Lennard
label tloop

variable T index 1.0 1.5 2.0 2.5 3.0

units lj
dimension 3
boundary p p p
atom_style atomic

lattice fcc 0.01
region simbox block 0 10 0 10 0 10
create_box 1 simbox
create_atoms 1 box

mass 1 1.0
velocity all create ${T} 87287 dist uniform

pair_style lj/cut 3.0
pair_coeff 1 1 1.0 1.0 3.0

compute disp all displace/atom
compute myMSD all msd

variable D equal slope(c_myMSD[4])

fix f all nve

# dump 1 all custom 100 dump.displacement id type v_D

thermo 100
thermo_style custom step temp c_myMSD[4] time

run 100000

clear
next T
jump SELF tloop
