# 3d liquid lennard Jones
variable        dt equal 0.0005
variable        T equal 0.851
variable        b equal 5.72
variable        s equal 3.405
variable        rho equal (4/$b^3)*$s^3
variable        x equal 20
variable        y equal 20
variable        z equal 20
variable        r equal 20/$s
variable        N equal 100000


units           lj
dimension       3
boundary        p p p

atom_style      atomic

lattice         fcc ${rho}
region          simbox block 0 $x 0 $y 0 $z units lattice
create_box      2 simbox
create_atoms    1 box

mass            * 1.0

pair_style      lj/cut 1.12246
pair_coeff      * * 1.0 1.0 1.12246

timestep        ${dt}

velocity        all create $T 42 dist uniform
fix             fixnvt all nvt temp $T $T $(100.0*dt)

# Relax system
thermo          100
thermo_style    custom temp
run             2000

# Cylinder pore
region          pore cylinder x $(ly/2) $(lz/2) $r EDGE EDGE units box
delete_atoms    porosity pore 0.5 42
group           flow region pore
group           boundary subtract all flow
set             group flow type 2

variable        countFlow equal count(flow)
print           ${countFlow} file no_particles_flow.txt

unfix           fixnvt
fix             fixnvtFlow flow nvt temp $T $T $(100.0*dt)
fix             fixForce flow addforce 0.1 0.0 0.0 region pore

thermo          100
thermo_style    custom temp
run             2000
reset_timestep  0


unfix           fixnvtFlow
fix             fixnve flow nve# temp $T $T $(1.0*dt)

compute         layers flow chunk/atom bin/1d z center 0.005 units lattice
fix             velProf flow ave/chunk 1 $N $N layers vx norm none file tmp.profile_nvtnvenve_t1.05

thermo          100
thermo_style    custom step temp time
dump            1 flow custom 50 dump.task_h id type x y z vx vy vz
run             $N
