label Tloop

variable T index 200.0 240.0 263.0 268.0 273.0 278.0 283.0 300.0 340.0 363.0 368.0 373.0 382.0 388.0


# ----------------- Init Section -----------------

include "spce-water-system.in.init"


# ----------------- Atom Definition Section -----------------

read_data "spce-water-system.data"

# ----------------- Settings Section -----------------

include "spce-water-system.in.settings"


# ----------------- Run Section -----------------

timestep 1.0

fix fxnpt all npt temp ${T} ${T} 100.0 iso 1.0 1.0 1000.0 drag 1.0

# Equilibriate
thermo_style custom cpu
run 1000
reset_timestep  0

compute myMSD all msd

dump 1 all custom 10 traj_np.lammpstrj id mol type x y z ix iy iz
thermo 10
thermo_style custom step temp c_myMSD[4] time
run 1000

clear
next T
jump SELF Tloop
