# 3d liquid lennard Jones
variable    dt equal 0.005
variable    T equal 1.5
variable    b equal 5.7e-10
variable    s equal 3.405e-10
variable    rho equal 4/$b^3*$s^3
variable    x equal 20
variable    y equal 20
variable    z equal 20
variable    N equal 1000

units       lj
dimension   3
boundary    p p p
atom_style  atomic

lattice         fcc ${rho}
region          simbox block 0 $x 0 $y 0 $z
create_box      2 simbox
create_atoms    1 box

mass        1 1.0
mass        2 1.0

velocity    all create ${T} 42 dist uniform

pair_style  lj/cut 3.0
pair_coeff  * * 1.0 1.0 3.0

fix             fixnvt all nvt temp ${T} ${T} $(100.0*dt)

# Thermalize
thermo_style    custom cpu
run             2000
reset_timestep  0

unfix       fixnvt


# Relax
fix         fixnve all nve
# Equilibriate
thermo_style    custom cpu
run             1000
reset_timestep  0

# Remove thermalization
unfix       fixnve

fix         fixnve all nve

compute     myMSD all msd

thermo          10
thermo_style    custom step temp c_myMSD[4] time
log             log_msd_T851.lammps
run             $N
