# 3d Lennard
variable T equal 2.5
variable rho equal 0.01

units lj
dimension 3
boundary p p p
atom_style atomic

lattice fcc ${rho}
region simbox block 0 10 0 10 0 10
create_box 1 simbox
create_atoms 1 box

mass 1 1.0

velocity all create ${T} 87287 dist uniform

pair_style lj/cut 3.0
pair_coeff 1 1 1.0 1.0 3.0

compute myMSD all msd
compute myRDF all rdf 100

fix 1 all nvt temp ${T} ${T} $(1.0 * dt)
fix 2 all ave/time 1 20000 20000 c_myRDF[*] file time_avg_rdf_nose-hoover.txt mode vector

dump 1 all custom 100 dump.task_i_nose-hoover id type x y z vx vy vz
thermo 100

thermo_style custom step temp press etotal density c_myMSD[4] time
log log.nose-hoover

run 20000

clear

units lj
dimension 3
boundary p p p
atom_style atomic

lattice fcc ${rho}
region simbox block 0 10 0 10 0 10
create_box 1 simbox
create_atoms 1 box

mass 1 1.0

velocity all create ${T} 87287 dist uniform

pair_style lj/cut 3.0
pair_coeff 1 1 1.0 1.0 3.0

compute myMSD all msd
compute myRDF all rdf 100

fix 1 all nve
fix 2 all temp/berendsen ${T} ${T} 1.0

fix 3 all ave/time 1 20000 20000 c_myRDF[*] file time_avg_rdf_berendsen.txt mode vector


dump 1 all custom 100 dump.task_i_berendsen id type x y z vx vy vz
thermo 100

thermo_style custom step temp press etotal density c_myMSD[4] time
log log.berendsen

run 20000
